% The data for the timetable problem
% This would be generated by a python program from a GUI frontend
numClasses = 4;
class_names = ["10A", "10B", "9A", "9B"];
numSlots = 10;
timeSlots = ["8:50 - 9:00", 
			"9:00 - 9:10", 
			"9:10 - 9:20", 
			"9:20 - 9:30", 
			"9:30 - 9:40", 
			"9:40 - 9:50", 
			"9:50 - 10:00", 
			"10:00 - 10:10", 
			"10:10 - 10:20",
			"10:20 - 10:30"
	%		"10:30 - 10:40",
	%		"10:40 - 10:50"
	%		"10:50 - 11:00",
	%		"11:00 - 11:10",
	%		"11:10 - 11:20",
	%		"11:20 - 11:30"
	];


num_avatars = 15;	% the union of all teachers of all classes, including the "no" teacher '--'

% This is the "avatars" of teachers, which means one teacher may come twice since they teach multiple subjects
teacher_avatars = ["--", "AA", "CJ", "NS", "PA", "JS", "MJ", "SK", "AP", "VS", "SWP", "SB", "RO", "VS", "NS"];
teacher_ids 	= [0, 1, 2, 3, 4, 5, 6, 7, 8, 9, 10, 11, 12, 9, 3];
% teacher IDs 		0	   1	 2		3	 4	  5	 	6	   7	 8	   9	 10	   11	 12	   13	 14

% coordinators = ["AA", "MJ"];
numCoordinators = 2;
coordinators = [1, 6];

numSubjects = 10;	% the no of subjects in a class

/*
tenA_teachers = ["MJ", "AP", "RO", "VS", "AA", "NS", "PA", "CJ", "SK", "JS"];
tenB_teachers = ["SB", "AP", "RO", "VS", "AA", "NS", "PA", "NS", "SK", "JS"];
nineA_teachers = ["MJ", "AP", "RO", "VS", "AA", "NS", "PA", "NS", "SK", "JS"];
nineB_teachers = ["SB", "SWP", "RO", "VS", "VS", "NS", "PA", "NS", "SK", "JS"];
*/

teachers_assignments = [{6, 8, 12, 9, 1, 3, 4, 2, 7, 5},
						{11, 8, 12, 9, 1, 3, 4, 14, 7, 5},
						{6, 8, 12, 9, 1, 3, 4, 14, 7, 5},
						{11, 10, 12, 9, 13, 3, 4, 14, 7, 5}];

/*
tenA_teachers = {6, 8, 12, 9, 1, 3, 4, 2, 7, 5};
tenB_teachers = {11, 8, 12, 9, 1, 3, 4, 14, 7, 5};
nineA_teachers = {6, 8, 12, 9, 1, 3, 4, 14, 7, 5};
nineB_teachers = {11, 10, 12, 9, 13, 3, 4, 14, 7, 5};
*/